p cnf 486 1419
c inputs: 1 2 3 4 5 6 7 8 9 10 11 12 13
c variables for gates: 14 ... 473
c outputs: 474 475 476 477 478 479 480 481 482 483 484 485 486
c random input: -1 2 -3 -4 -5 6 -7 8 9 10 11 -12 -13
14 -1 -8 0
-14 1 0
-14 8 0
15 -2 -7 0
-15 2 0
-15 7 0
16 -14 15 0
-16 14 0
-16 -15 0
17 -15 14 0
-17 15 0
-17 -14 0
18 16 17 0
-18 -16 0
-18 -17 0
19 -1 -8 0
-19 1 0
-19 8 0
20 -2 -7 0
-20 2 0
-20 7 0
21 -20 -19 0
-21 20 0
-21 19 0
22 -1 -9 0
-22 1 0
-22 9 0
23 -2 -8 0
-23 2 0
-23 8 0
24 -23 -22 0
-24 23 0
-24 22 0
25 -1 -9 0
-25 1 0
-25 9 0
26 -25 -21 0
-26 25 0
-26 21 0
27 -2 -8 0
-27 2 0
-27 8 0
28 -27 -21 0
-28 27 0
-28 21 0
29 26 28 0
-29 -26 0
-29 -28 0
30 24 -29 0
-30 -24 0
-30 29 0
31 -1 -9 0
-31 1 0
-31 9 0
32 -2 -8 0
-32 2 0
-32 8 0
33 -32 21 0
-33 32 0
-33 -21 0
34 32 -21 0
-34 -32 0
-34 21 0
35 34 33 0
-35 -34 0
-35 -33 0
36 -31 -35 0
-36 31 0
-36 35 0
37 31 35 0
-37 -31 0
-37 -35 0
38 37 36 0
-38 -37 0
-38 -36 0
39 -1 -10 0
-39 1 0
-39 10 0
40 -2 -9 0
-40 2 0
-40 9 0
41 -40 -39 0
-41 40 0
-41 39 0
42 -1 -10 0
-42 1 0
-42 10 0
43 -42 30 0
-43 42 0
-43 -30 0
44 -2 -9 0
-44 2 0
-44 9 0
45 -44 30 0
-45 44 0
-45 -30 0
46 45 43 0
-46 -45 0
-46 -43 0
47 41 -46 0
-47 -41 0
-47 46 0
48 -1 -10 0
-48 1 0
-48 10 0
49 -2 -9 0
-49 2 0
-49 9 0
50 -49 -30 0
-50 49 0
-50 30 0
51 49 30 0
-51 -49 0
-51 -30 0
52 50 51 0
-52 -50 0
-52 -51 0
53 -48 -52 0
-53 48 0
-53 52 0
54 48 52 0
-54 -48 0
-54 -52 0
55 54 53 0
-55 -54 0
-55 -53 0
56 -1 -11 0
-56 1 0
-56 11 0
57 -2 -10 0
-57 2 0
-57 10 0
58 -57 -56 0
-58 57 0
-58 56 0
59 -1 -11 0
-59 1 0
-59 11 0
60 -59 47 0
-60 59 0
-60 -47 0
61 -2 -10 0
-61 2 0
-61 10 0
62 -61 47 0
-62 61 0
-62 -47 0
63 60 62 0
-63 -60 0
-63 -62 0
64 58 -63 0
-64 -58 0
-64 63 0
65 -1 -11 0
-65 1 0
-65 11 0
66 -2 -10 0
-66 2 0
-66 10 0
67 -66 -47 0
-67 66 0
-67 47 0
68 66 47 0
-68 -66 0
-68 -47 0
69 67 68 0
-69 -67 0
-69 -68 0
70 -65 -69 0
-70 65 0
-70 69 0
71 65 69 0
-71 -65 0
-71 -69 0
72 70 71 0
-72 -70 0
-72 -71 0
73 -1 -12 0
-73 1 0
-73 12 0
74 -2 -11 0
-74 2 0
-74 11 0
75 -74 -73 0
-75 74 0
-75 73 0
76 -1 -12 0
-76 1 0
-76 12 0
77 -76 64 0
-77 76 0
-77 -64 0
78 -2 -11 0
-78 2 0
-78 11 0
79 -78 64 0
-79 78 0
-79 -64 0
80 77 79 0
-80 -77 0
-80 -79 0
81 75 -80 0
-81 -75 0
-81 80 0
82 -1 -12 0
-82 1 0
-82 12 0
83 -2 -11 0
-83 2 0
-83 11 0
84 -83 -64 0
-84 83 0
-84 64 0
85 83 64 0
-85 -83 0
-85 -64 0
86 84 85 0
-86 -84 0
-86 -85 0
87 -82 -86 0
-87 82 0
-87 86 0
88 82 86 0
-88 -82 0
-88 -86 0
89 88 87 0
-89 -88 0
-89 -87 0
90 -1 -13 0
-90 1 0
-90 13 0
91 -2 -12 0
-91 2 0
-91 12 0
92 -91 -90 0
-92 91 0
-92 90 0
93 -1 -13 0
-93 1 0
-93 13 0
94 -93 81 0
-94 93 0
-94 -81 0
95 -2 -12 0
-95 2 0
-95 12 0
96 -95 81 0
-96 95 0
-96 -81 0
97 96 94 0
-97 -96 0
-97 -94 0
98 92 -97 0
-98 -92 0
-98 97 0
99 -1 -13 0
-99 1 0
-99 13 0
100 -2 -12 0
-100 2 0
-100 12 0
101 -100 -81 0
-101 100 0
-101 81 0
102 100 81 0
-102 -100 0
-102 -81 0
103 101 102 0
-103 -101 0
-103 -102 0
104 -99 -103 0
-104 99 0
-104 103 0
105 99 103 0
-105 -99 0
-105 -103 0
106 105 104 0
-106 -105 0
-106 -104 0
107 -2 -13 0
-107 2 0
-107 13 0
108 -107 98 0
-108 107 0
-108 -98 0
109 -2 -13 0
-109 2 0
-109 13 0
110 -109 -98 0
-110 109 0
-110 98 0
111 109 98 0
-111 -109 0
-111 -98 0
112 111 110 0
-112 -111 0
-112 -110 0
113 -3 -7 0
-113 3 0
-113 7 0
114 113 38 0
-114 -113 0
-114 -38 0
115 -113 -38 0
-115 113 0
-115 38 0
116 115 114 0
-116 -115 0
-116 -114 0
117 -3 -7 0
-117 3 0
-117 7 0
118 -117 38 0
-118 117 0
-118 -38 0
119 -3 -8 0
-119 3 0
-119 8 0
120 -119 55 0
-120 119 0
-120 -55 0
121 55 -118 0
-121 -55 0
-121 118 0
122 -3 -8 0
-122 3 0
-122 8 0
123 -122 -118 0
-123 122 0
-123 118 0
124 123 121 0
-124 -123 0
-124 -121 0
125 120 -124 0
-125 -120 0
-125 124 0
126 -3 -8 0
-126 3 0
-126 8 0
127 -126 118 0
-127 126 0
-127 -118 0
128 126 -118 0
-128 -126 0
-128 118 0
129 128 127 0
-129 -128 0
-129 -127 0
130 55 -129 0
-130 -55 0
-130 129 0
131 -55 129 0
-131 55 0
-131 -129 0
132 130 131 0
-132 -130 0
-132 -131 0
133 -3 -9 0
-133 3 0
-133 9 0
134 -133 72 0
-134 133 0
-134 -72 0
135 72 125 0
-135 -72 0
-135 -125 0
136 -3 -9 0
-136 3 0
-136 9 0
137 -136 125 0
-137 136 0
-137 -125 0
138 137 135 0
-138 -137 0
-138 -135 0
139 134 -138 0
-139 -134 0
-139 138 0
140 -3 -9 0
-140 3 0
-140 9 0
141 -140 -125 0
-141 140 0
-141 125 0
142 140 125 0
-142 -140 0
-142 -125 0
143 141 142 0
-143 -141 0
-143 -142 0
144 72 -143 0
-144 -72 0
-144 143 0
145 -72 143 0
-145 72 0
-145 -143 0
146 145 144 0
-146 -145 0
-146 -144 0
147 -3 -10 0
-147 3 0
-147 10 0
148 -147 89 0
-148 147 0
-148 -89 0
149 89 139 0
-149 -89 0
-149 -139 0
150 -3 -10 0
-150 3 0
-150 10 0
151 -150 139 0
-151 150 0
-151 -139 0
152 149 151 0
-152 -149 0
-152 -151 0
153 148 -152 0
-153 -148 0
-153 152 0
154 -3 -10 0
-154 3 0
-154 10 0
155 -154 -139 0
-155 154 0
-155 139 0
156 154 139 0
-156 -154 0
-156 -139 0
157 156 155 0
-157 -156 0
-157 -155 0
158 -157 89 0
-158 157 0
-158 -89 0
159 157 -89 0
-159 -157 0
-159 89 0
160 159 158 0
-160 -159 0
-160 -158 0
161 -3 -11 0
-161 3 0
-161 11 0
162 -161 106 0
-162 161 0
-162 -106 0
163 106 153 0
-163 -106 0
-163 -153 0
164 -3 -11 0
-164 3 0
-164 11 0
165 -164 153 0
-165 164 0
-165 -153 0
166 163 165 0
-166 -163 0
-166 -165 0
167 -166 162 0
-167 166 0
-167 -162 0
168 -3 -11 0
-168 3 0
-168 11 0
169 -168 -153 0
-169 168 0
-169 153 0
170 168 153 0
-170 -168 0
-170 -153 0
171 169 170 0
-171 -169 0
-171 -170 0
172 106 -171 0
-172 -106 0
-172 171 0
173 -106 171 0
-173 106 0
-173 -171 0
174 172 173 0
-174 -172 0
-174 -173 0
175 -3 -12 0
-175 3 0
-175 12 0
176 -175 112 0
-176 175 0
-176 -112 0
177 112 167 0
-177 -112 0
-177 -167 0
178 -3 -12 0
-178 3 0
-178 12 0
179 -178 167 0
-179 178 0
-179 -167 0
180 179 177 0
-180 -179 0
-180 -177 0
181 176 -180 0
-181 -176 0
-181 180 0
182 -3 -12 0
-182 3 0
-182 12 0
183 -182 -167 0
-183 182 0
-183 167 0
184 182 167 0
-184 -182 0
-184 -167 0
185 183 184 0
-185 -183 0
-185 -184 0
186 112 -185 0
-186 -112 0
-186 185 0
187 -112 185 0
-187 112 0
-187 -185 0
188 187 186 0
-188 -187 0
-188 -186 0
189 -3 -13 0
-189 3 0
-189 13 0
190 -189 -108 0
-190 189 0
-190 108 0
191 181 -108 0
-191 -181 0
-191 108 0
192 -3 -13 0
-192 3 0
-192 13 0
193 -192 181 0
-193 192 0
-193 -181 0
194 193 191 0
-194 -193 0
-194 -191 0
195 -194 190 0
-195 194 0
-195 -190 0
196 -3 -13 0
-196 3 0
-196 13 0
197 -196 -181 0
-197 196 0
-197 181 0
198 196 181 0
-198 -196 0
-198 -181 0
199 198 197 0
-199 -198 0
-199 -197 0
200 -199 -108 0
-200 199 0
-200 108 0
201 199 108 0
-201 -199 0
-201 -108 0
202 200 201 0
-202 -200 0
-202 -201 0
203 -4 -7 0
-203 4 0
-203 7 0
204 203 132 0
-204 -203 0
-204 -132 0
205 -203 -132 0
-205 203 0
-205 132 0
206 205 204 0
-206 -205 0
-206 -204 0
207 -4 -7 0
-207 4 0
-207 7 0
208 -207 132 0
-208 207 0
-208 -132 0
209 -4 -8 0
-209 4 0
-209 8 0
210 -209 146 0
-210 209 0
-210 -146 0
211 146 -208 0
-211 -146 0
-211 208 0
212 -4 -8 0
-212 4 0
-212 8 0
213 -212 -208 0
-213 212 0
-213 208 0
214 213 211 0
-214 -213 0
-214 -211 0
215 210 -214 0
-215 -210 0
-215 214 0
216 -4 -8 0
-216 4 0
-216 8 0
217 -216 208 0
-217 216 0
-217 -208 0
218 216 -208 0
-218 -216 0
-218 208 0
219 218 217 0
-219 -218 0
-219 -217 0
220 146 -219 0
-220 -146 0
-220 219 0
221 -146 219 0
-221 146 0
-221 -219 0
222 221 220 0
-222 -221 0
-222 -220 0
223 -4 -9 0
-223 4 0
-223 9 0
224 -223 160 0
-224 223 0
-224 -160 0
225 160 215 0
-225 -160 0
-225 -215 0
226 -4 -9 0
-226 4 0
-226 9 0
227 -226 215 0
-227 226 0
-227 -215 0
228 225 227 0
-228 -225 0
-228 -227 0
229 224 -228 0
-229 -224 0
-229 228 0
230 -4 -9 0
-230 4 0
-230 9 0
231 -230 -215 0
-231 230 0
-231 215 0
232 230 215 0
-232 -230 0
-232 -215 0
233 232 231 0
-233 -232 0
-233 -231 0
234 160 -233 0
-234 -160 0
-234 233 0
235 -160 233 0
-235 160 0
-235 -233 0
236 234 235 0
-236 -234 0
-236 -235 0
237 -4 -10 0
-237 4 0
-237 10 0
238 -237 174 0
-238 237 0
-238 -174 0
239 174 229 0
-239 -174 0
-239 -229 0
240 -4 -10 0
-240 4 0
-240 10 0
241 -240 229 0
-241 240 0
-241 -229 0
242 239 241 0
-242 -239 0
-242 -241 0
243 238 -242 0
-243 -238 0
-243 242 0
244 -4 -10 0
-244 4 0
-244 10 0
245 -244 -229 0
-245 244 0
-245 229 0
246 244 229 0
-246 -244 0
-246 -229 0
247 246 245 0
-247 -246 0
-247 -245 0
248 174 -247 0
-248 -174 0
-248 247 0
249 -174 247 0
-249 174 0
-249 -247 0
250 249 248 0
-250 -249 0
-250 -248 0
251 -4 -11 0
-251 4 0
-251 11 0
252 -251 188 0
-252 251 0
-252 -188 0
253 243 188 0
-253 -243 0
-253 -188 0
254 -4 -11 0
-254 4 0
-254 11 0
255 -254 243 0
-255 254 0
-255 -243 0
256 255 253 0
-256 -255 0
-256 -253 0
257 -256 252 0
-257 256 0
-257 -252 0
258 -4 -11 0
-258 4 0
-258 11 0
259 -258 -243 0
-259 258 0
-259 243 0
260 258 243 0
-260 -258 0
-260 -243 0
261 260 259 0
-261 -260 0
-261 -259 0
262 -261 188 0
-262 261 0
-262 -188 0
263 261 -188 0
-263 -261 0
-263 188 0
264 262 263 0
-264 -262 0
-264 -263 0
265 -4 -12 0
-265 4 0
-265 12 0
266 -265 202 0
-266 265 0
-266 -202 0
267 202 257 0
-267 -202 0
-267 -257 0
268 -4 -12 0
-268 4 0
-268 12 0
269 -268 257 0
-269 268 0
-269 -257 0
270 267 269 0
-270 -267 0
-270 -269 0
271 266 -270 0
-271 -266 0
-271 270 0
272 -4 -12 0
-272 4 0
-272 12 0
273 -272 -257 0
-273 272 0
-273 257 0
274 272 257 0
-274 -272 0
-274 -257 0
275 273 274 0
-275 -273 0
-275 -274 0
276 202 -275 0
-276 -202 0
-276 275 0
277 -202 275 0
-277 202 0
-277 -275 0
278 276 277 0
-278 -276 0
-278 -277 0
279 -4 -13 0
-279 4 0
-279 13 0
280 -279 195 0
-280 279 0
-280 -195 0
281 271 195 0
-281 -271 0
-281 -195 0
282 -4 -13 0
-282 4 0
-282 13 0
283 -282 271 0
-283 282 0
-283 -271 0
284 281 283 0
-284 -281 0
-284 -283 0
285 280 -284 0
-285 -280 0
-285 284 0
286 -4 -13 0
-286 4 0
-286 13 0
287 -286 -271 0
-287 286 0
-287 271 0
288 286 271 0
-288 -286 0
-288 -271 0
289 287 288 0
-289 -287 0
-289 -288 0
290 -289 195 0
-290 289 0
-290 -195 0
291 289 -195 0
-291 -289 0
-291 195 0
292 291 290 0
-292 -291 0
-292 -290 0
293 -5 -7 0
-293 5 0
-293 7 0
294 293 222 0
-294 -293 0
-294 -222 0
295 -293 -222 0
-295 293 0
-295 222 0
296 294 295 0
-296 -294 0
-296 -295 0
297 -5 -7 0
-297 5 0
-297 7 0
298 -297 222 0
-298 297 0
-298 -222 0
299 -5 -8 0
-299 5 0
-299 8 0
300 -299 236 0
-300 299 0
-300 -236 0
301 236 -298 0
-301 -236 0
-301 298 0
302 -5 -8 0
-302 5 0
-302 8 0
303 -302 -298 0
-303 302 0
-303 298 0
304 301 303 0
-304 -301 0
-304 -303 0
305 300 -304 0
-305 -300 0
-305 304 0
306 -5 -8 0
-306 5 0
-306 8 0
307 -306 298 0
-307 306 0
-307 -298 0
308 306 -298 0
-308 -306 0
-308 298 0
309 307 308 0
-309 -307 0
-309 -308 0
310 236 -309 0
-310 -236 0
-310 309 0
311 -236 309 0
-311 236 0
-311 -309 0
312 310 311 0
-312 -310 0
-312 -311 0
313 -5 -9 0
-313 5 0
-313 9 0
314 -313 250 0
-314 313 0
-314 -250 0
315 250 305 0
-315 -250 0
-315 -305 0
316 -5 -9 0
-316 5 0
-316 9 0
317 -316 305 0
-317 316 0
-317 -305 0
318 315 317 0
-318 -315 0
-318 -317 0
319 -318 314 0
-319 318 0
-319 -314 0
320 -5 -9 0
-320 5 0
-320 9 0
321 -320 -305 0
-321 320 0
-321 305 0
322 320 305 0
-322 -320 0
-322 -305 0
323 322 321 0
-323 -322 0
-323 -321 0
324 250 -323 0
-324 -250 0
-324 323 0
325 -250 323 0
-325 250 0
-325 -323 0
326 324 325 0
-326 -324 0
-326 -325 0
327 -5 -10 0
-327 5 0
-327 10 0
328 -327 264 0
-328 327 0
-328 -264 0
329 319 264 0
-329 -319 0
-329 -264 0
330 -5 -10 0
-330 5 0
-330 10 0
331 -330 319 0
-331 330 0
-331 -319 0
332 331 329 0
-332 -331 0
-332 -329 0
333 328 -332 0
-333 -328 0
-333 332 0
334 -5 -10 0
-334 5 0
-334 10 0
335 -334 -319 0
-335 334 0
-335 319 0
336 334 319 0
-336 -334 0
-336 -319 0
337 336 335 0
-337 -336 0
-337 -335 0
338 -337 264 0
-338 337 0
-338 -264 0
339 337 -264 0
-339 -337 0
-339 264 0
340 339 338 0
-340 -339 0
-340 -338 0
341 -5 -11 0
-341 5 0
-341 11 0
342 -341 278 0
-342 341 0
-342 -278 0
343 278 333 0
-343 -278 0
-343 -333 0
344 -5 -11 0
-344 5 0
-344 11 0
345 -344 333 0
-345 344 0
-345 -333 0
346 343 345 0
-346 -343 0
-346 -345 0
347 -346 342 0
-347 346 0
-347 -342 0
348 -5 -11 0
-348 5 0
-348 11 0
349 -348 -333 0
-349 348 0
-349 333 0
350 348 333 0
-350 -348 0
-350 -333 0
351 349 350 0
-351 -349 0
-351 -350 0
352 -351 278 0
-352 351 0
-352 -278 0
353 351 -278 0
-353 -351 0
-353 278 0
354 353 352 0
-354 -353 0
-354 -352 0
355 -5 -12 0
-355 5 0
-355 12 0
356 -355 292 0
-356 355 0
-356 -292 0
357 347 292 0
-357 -347 0
-357 -292 0
358 -5 -12 0
-358 5 0
-358 12 0
359 -358 347 0
-359 358 0
-359 -347 0
360 359 357 0
-360 -359 0
-360 -357 0
361 -360 356 0
-361 360 0
-361 -356 0
362 -5 -12 0
-362 5 0
-362 12 0
363 -362 -347 0
-363 362 0
-363 347 0
364 362 347 0
-364 -362 0
-364 -347 0
365 363 364 0
-365 -363 0
-365 -364 0
366 292 -365 0
-366 -292 0
-366 365 0
367 -292 365 0
-367 292 0
-367 -365 0
368 367 366 0
-368 -367 0
-368 -366 0
369 -5 -13 0
-369 5 0
-369 13 0
370 -369 285 0
-370 369 0
-370 -285 0
371 361 285 0
-371 -361 0
-371 -285 0
372 -5 -13 0
-372 5 0
-372 13 0
373 -372 361 0
-373 372 0
-373 -361 0
374 371 373 0
-374 -371 0
-374 -373 0
375 -374 370 0
-375 374 0
-375 -370 0
376 -5 -13 0
-376 5 0
-376 13 0
377 -376 -361 0
-377 376 0
-377 361 0
378 376 361 0
-378 -376 0
-378 -361 0
379 378 377 0
-379 -378 0
-379 -377 0
380 -379 285 0
-380 379 0
-380 -285 0
381 379 -285 0
-381 -379 0
-381 285 0
382 380 381 0
-382 -380 0
-382 -381 0
383 -6 -7 0
-383 6 0
-383 7 0
384 383 312 0
-384 -383 0
-384 -312 0
385 -383 -312 0
-385 383 0
-385 312 0
386 384 385 0
-386 -384 0
-386 -385 0
387 -6 -7 0
-387 6 0
-387 7 0
388 -387 312 0
-388 387 0
-388 -312 0
389 -6 -8 0
-389 6 0
-389 8 0
390 -389 326 0
-390 389 0
-390 -326 0
391 326 -388 0
-391 -326 0
-391 388 0
392 -6 -8 0
-392 6 0
-392 8 0
393 -392 -388 0
-393 392 0
-393 388 0
394 393 391 0
-394 -393 0
-394 -391 0
395 -394 390 0
-395 394 0
-395 -390 0
396 -6 -8 0
-396 6 0
-396 8 0
397 -396 388 0
-397 396 0
-397 -388 0
398 396 -388 0
-398 -396 0
-398 388 0
399 397 398 0
-399 -397 0
-399 -398 0
400 -399 326 0
-400 399 0
-400 -326 0
401 399 -326 0
-401 -399 0
-401 326 0
402 401 400 0
-402 -401 0
-402 -400 0
403 -6 -9 0
-403 6 0
-403 9 0
404 -403 340 0
-404 403 0
-404 -340 0
405 340 395 0
-405 -340 0
-405 -395 0
406 -6 -9 0
-406 6 0
-406 9 0
407 -406 395 0
-407 406 0
-407 -395 0
408 405 407 0
-408 -405 0
-408 -407 0
409 404 -408 0
-409 -404 0
-409 408 0
410 -6 -9 0
-410 6 0
-410 9 0
411 -410 -395 0
-411 410 0
-411 395 0
412 410 395 0
-412 -410 0
-412 -395 0
413 412 411 0
-413 -412 0
-413 -411 0
414 -413 340 0
-414 413 0
-414 -340 0
415 413 -340 0
-415 -413 0
-415 340 0
416 414 415 0
-416 -414 0
-416 -415 0
417 -6 -10 0
-417 6 0
-417 10 0
418 -417 354 0
-418 417 0
-418 -354 0
419 354 409 0
-419 -354 0
-419 -409 0
420 -6 -10 0
-420 6 0
-420 10 0
421 -420 409 0
-421 420 0
-421 -409 0
422 419 421 0
-422 -419 0
-422 -421 0
423 418 -422 0
-423 -418 0
-423 422 0
424 -6 -10 0
-424 6 0
-424 10 0
425 -424 -409 0
-425 424 0
-425 409 0
426 424 409 0
-426 -424 0
-426 -409 0
427 425 426 0
-427 -425 0
-427 -426 0
428 354 -427 0
-428 -354 0
-428 427 0
429 -354 427 0
-429 354 0
-429 -427 0
430 429 428 0
-430 -429 0
-430 -428 0
431 -6 -11 0
-431 6 0
-431 11 0
432 -431 368 0
-432 431 0
-432 -368 0
433 368 423 0
-433 -368 0
-433 -423 0
434 -6 -11 0
-434 6 0
-434 11 0
435 -434 423 0
-435 434 0
-435 -423 0
436 433 435 0
-436 -433 0
-436 -435 0
437 432 -436 0
-437 -432 0
-437 436 0
438 -6 -11 0
-438 6 0
-438 11 0
439 -438 -423 0
-439 438 0
-439 423 0
440 438 423 0
-440 -438 0
-440 -423 0
441 440 439 0
-441 -440 0
-441 -439 0
442 368 -441 0
-442 -368 0
-442 441 0
443 -368 441 0
-443 368 0
-443 -441 0
444 442 443 0
-444 -442 0
-444 -443 0
445 -6 -12 0
-445 6 0
-445 12 0
446 -445 382 0
-446 445 0
-446 -382 0
447 437 382 0
-447 -437 0
-447 -382 0
448 -6 -12 0
-448 6 0
-448 12 0
449 -448 437 0
-449 448 0
-449 -437 0
450 449 447 0
-450 -449 0
-450 -447 0
451 -450 446 0
-451 450 0
-451 -446 0
452 -6 -12 0
-452 6 0
-452 12 0
453 -452 -437 0
-453 452 0
-453 437 0
454 452 437 0
-454 -452 0
-454 -437 0
455 454 453 0
-455 -454 0
-455 -453 0
456 -455 382 0
-456 455 0
-456 -382 0
457 455 -382 0
-457 -455 0
-457 382 0
458 457 456 0
-458 -457 0
-458 -456 0
459 -6 -13 0
-459 6 0
-459 13 0
460 -459 375 0
-460 459 0
-460 -375 0
461 451 375 0
-461 -451 0
-461 -375 0
462 -6 -13 0
-462 6 0
-462 13 0
463 -462 451 0
-463 462 0
-463 -451 0
464 461 463 0
-464 -461 0
-464 -463 0
465 460 -464 0
-465 -460 0
-465 464 0
466 -6 -13 0
-466 6 0
-466 13 0
467 -466 -451 0
-467 466 0
-467 451 0
468 466 451 0
-468 -466 0
-468 -451 0
469 468 467 0
-469 -468 0
-469 -467 0
470 -469 375 0
-470 469 0
-470 -375 0
471 469 -375 0
-471 -469 0
-471 375 0
472 470 471 0
-472 -470 0
-472 -471 0
473 -1 -7 0
-473 1 0
-473 7 0
-474 473 0
474 -473 0
-475 -18 0
475 18 0
-476 -116 0
476 116 0
-477 -206 0
477 206 0
-478 -296 0
478 296 0
-479 -386 0
479 386 0
-480 -402 0
480 402 0
-481 -416 0
481 416 0
-482 -430 0
482 430 0
-483 -444 0
483 444 0
-484 -458 0
484 458 0
-485 -472 0
485 472 0
-486 -465 0
486 465 0
-474 0
-475 0
476 0
477 0
478 0
479 0
480 0
481 0
482 0
483 0
-484 0
-485 0
-486 0
